
Gurobi 9.1.2 (linux64, gurobi_cl) logging started Thu Dec 22 16:11:28 2022


Gurobi 9.1.2 (linux64, gurobi_cl) logging started Thu Dec 22 16:14:36 2022

Academic license - for non-commercial use only - expires 2023-12-01
Using license file /home/maitrey/scr/gurobi.lic
Set parameter LogFile to value gurobi.log

Gurobi 9.1.2 (linux64, gurobi_cl) logging started Wed Feb  1 20:36:06 2023


Gurobi 9.1.2 (linux64, gurobi_cl) logging started Wed Feb  1 20:37:10 2023

Academic license - for non-commercial use only - expires 2023-12-01
Using license file /uusoc//exports/scratch/maitrey/gurobi.lic
Set parameter LogFile to value gurobi.log
